(declare-const term_to_project_onto0 Real)
(declare-const term_to_project_onto Real)
(assert (exists
         ((|y'?1| Int) (|x'?2| Int) (tr?3 Int) (tr?4 Int) (phi_y?5 Int)
            (phi_x?6 Int) (tr?7 Int) (tr?8 Int) (y?9 Int) (x?10 Int))
         (and (<= (- x?10) 0) (<= (+ (- y?9) x?10 1) 0)
                (or (and (<= (+ (- tr?7) tr?8 1) 0)
                           (= (+ (- phi_x?6) x?10) 0)
                           (= (+ (- phi_y?5) y?9 -1) 0))
                      (and (<= (+ (- tr?3) tr?4) 0)
                             (= (+ (- phi_x?6) x?10 1) 0)
                             (= (+ (- phi_y?5) y?9) 0)))
                (= (+ |y'?1| (- phi_y?5)) 0) (= (+ |x'?2| (- phi_x?6)) 0)
                (= term_to_project_onto0 (+ |x'?2| (- x?10)))
                (= term_to_project_onto (+ |y'?1| (- y?9))))))
(check-sat)
